40
    86    25    28    31    40     5    99    86    63    38    65    62    53    61    78    58    39    60    68    75    76    76    41    19    49     5    84    99    70    93    61    25    80    41    13    12    46     2    60    78
     5     2     7     4     8     1     5     3     8     8     5     7     2     4     6     8     3     6     4     6     3     7     7     3     4     6     6     3     4     7     5     9     2     1     3     7     3     6     1     3
  1484   864  1710   954  1928  1196  1211   933  1452   924  1210   759   768   901  1076  1204  1819  1324  1910  1314  1208  1369  1594  1594  1047   763   793  1387  1089   713  1866   771  1836  1608   686  1804  1837  1362  1029  1395
